language ESSENCE' 1.0

letting fixed be 
[
    [0,4,1,8,6,5,3,9,0],
    [0,9,0,0,4,0,0,6,0],
    [0,3,0,7,9,2,4,0,1],
    [0,2,8,0,0,0,9,4,0],
    [5,1,9,6,2,4,0,0,3],
    [0,7,0,9,0,8,2,1,0],
    [1,5,0,0,8,0,6,2,9],
    [0,6,0,0,1,9,0,3,0],
    [9,8,0,2,0,6,1,0,0]
]